fsm/moore/cover_yosys/model/design_smt2.smt2
; SMT-LIBv2 description generated by Yosys 0.54 (git sha1 db72ec3bd, g++ 15.2.1 -march=x86-64 -mtune=generic -O2 -fno-plt -fexceptions -fstack-clash-protection -fcf-protection -fno-omit-frame-pointer -mno-omit-leaf-frame-pointer -ffile-prefix-map=/build/yosys/src=/usr/src/debug/yosys -fPIC -O3)
; yosys-smt2-module moore
(declare-sort |moore_s| 0)
(declare-fun |moore_is| (|moore_s|) Bool)
; yosys-smt2-memory $auto$proc_rom.cc:155:do_switch$11 4 8 1 0 sync
; yosys-smt2-witness {"path": ["$auto$proc_rom.cc:155:do_switch$11"], "rom": true, "size": 16, "smtname": "$auto$proc_rom.cc:155:do_switch$11", "statebv": false, "type": "mem", "uninitialized": [], "width": 8}
(declare-fun |moore#0#0| (|moore_s|) (Array (_ BitVec 4) (_ BitVec 8))) ; $auto$proc_rom.cc:155:do_switch$11
(define-fun |moore_m $auto$proc_rom.cc:155:do_switch$11| ((state |moore_s|)) (Array (_ BitVec 4) (_ BitVec 8)) (|moore#0#0| state))
; yosys-smt2-witness {"offset": 0, "path": ["\\led_index"], "smtname": 1, "smtoffset": 0, "type": "reg", "width": 4}
(declare-fun |moore#1| (|moore_s|) (_ BitVec 4)) ; \led_index
(define-fun |moore_m:R0A $auto$proc_rom.cc:155:do_switch$11| ((state |moore_s|)) (_ BitVec 4) (|moore#1| state)) ; \led_index
(define-fun |moore#2| ((state |moore_s|)) (_ BitVec 8) (select (|moore#0#0| state) (|moore_m:R0A $auto$proc_rom.cc:155:do_switch$11| state))) ; \o_led
(define-fun |moore_m:R0D $auto$proc_rom.cc:155:do_switch$11| ((state |moore_s|)) (_ BitVec 8) (|moore#2| state))
; yosys-smt2-output o_led 8
; yosys-smt2-wire o_led 8
(define-fun |moore_n o_led| ((state |moore_s|)) (_ BitVec 8) (|moore#2| state))
; yosys-smt2-register led_index 4
; yosys-smt2-wire led_index 4
(define-fun |moore_n led_index| ((state |moore_s|)) (_ BitVec 4) (|moore#1| state))
(declare-fun |moore#3| (|moore_s|) Bool) ; \i_clk
; yosys-smt2-input i_clk 1
; yosys-smt2-wire i_clk 1
; yosys-smt2-clock i_clk posedge
; yosys-smt2-witness {"offset": 0, "path": ["\\i_clk"], "smtname": "i_clk", "smtoffset": 0, "type": "posedge", "width": 1}
; yosys-smt2-witness {"offset": 0, "path": ["\\i_clk"], "smtname": "i_clk", "smtoffset": 0, "type": "input", "width": 1}
(define-fun |moore_n i_clk| ((state |moore_s|)) Bool (|moore#3| state))
; yosys-smt2-witness {"offset": 0, "path": ["$auto$async2sync.cc:110:execute$23"], "smtname": 4, "smtoffset": 0, "type": "reg", "width": 1}
(declare-fun |moore#4| (|moore_s|) (_ BitVec 1)) ; $auto$async2sync.cc:110:execute$23
; yosys-smt2-register $auto$async2sync.cc:110:execute$23 1
(define-fun |moore_n $auto$async2sync.cc:110:execute$23| ((state |moore_s|)) Bool (= ((_ extract 0 0) (|moore#4| state)) #b1))
; yosys-smt2-witness {"offset": 0, "path": ["$auto$async2sync.cc:101:execute$19"], "smtname": 5, "smtoffset": 0, "type": "reg", "width": 1}
(declare-fun |moore#5| (|moore_s|) (_ BitVec 1)) ; $auto$async2sync.cc:101:execute$19
; yosys-smt2-register $auto$async2sync.cc:101:execute$19 1
(define-fun |moore_n $auto$async2sync.cc:101:execute$19| ((state |moore_s|)) Bool (= ((_ extract 0 0) (|moore#5| state)) #b1))
(define-fun |moore#6| ((state |moore_s|)) (_ BitVec 1) (bvnot (ite (|moore#3| state) #b1 #b0))) ; $auto$rtlil.cc:2957:Not$42
; yosys-smt2-assume 0 $auto$formalff.cc:981:execute$43
(define-fun |moore_u 0| ((state |moore_s|)) Bool (or (= ((_ extract 0 0) (|moore#6| state)) #b1) (not true))) ; $auto$formalff.cc:981:execute$43
; yosys-smt2-cover 0 _witness_.check_cover_moore_v_14_2 moore.v:14.2-14.26
(define-fun |moore_c 0| ((state |moore_s|)) Bool (and (= ((_ extract 0 0) (|moore#4| state)) #b1) (= ((_ extract 0 0) (|moore#5| state)) #b1))) ; _witness_.check_cover_moore_v_14_2
(define-fun |moore#7| ((state |moore_s|)) Bool (= (|moore#1| state) #b1110)) ; $eq$moore.v:14$3_Y
(define-fun |moore#8| ((state |moore_s|)) (_ BitVec 4) (bvadd (|moore#1| state) #b0001)) ; $add$moore.v:20$7_Y
(define-fun |moore#9| ((state |moore_s|)) Bool (bvuge (|moore#1| state) #b1110)) ; $ge$moore.v:17$6_Y
(define-fun |moore#10| ((state |moore_s|)) (_ BitVec 4) (ite (|moore#9| state) #b0001 (|moore#8| state))) ; $0\led_index[3:0]
(define-fun |moore_a| ((state |moore_s|)) Bool true)
(define-fun |moore_u| ((state |moore_s|)) Bool 
  (|moore_u 0| state)
)
(define-fun |moore_i| ((state |moore_s|)) Bool (and
  (= (|moore#1| state) #b0000) ; led_index
  (= (= ((_ extract 0 0) (|moore#4| state)) #b1) true) ; $auto$async2sync.cc:110:execute$23
  (= (= ((_ extract 0 0) (|moore#5| state)) #b1) false) ; $auto$async2sync.cc:101:execute$19
  (= (bvand (select (|moore#0#0| state) #b0000) #b11111111) #b00000000) ; $auto$proc_rom.cc:155:do_switch$11[0]
  (= (bvand (select (|moore#0#0| state) #b0001) #b11111111) #b00000001) ; $auto$proc_rom.cc:155:do_switch$11[1]
  (= (bvand (select (|moore#0#0| state) #b0010) #b11111111) #b00000010) ; $auto$proc_rom.cc:155:do_switch$11[2]
  (= (bvand (select (|moore#0#0| state) #b0011) #b11111111) #b00000100) ; $auto$proc_rom.cc:155:do_switch$11[3]
  (= (bvand (select (|moore#0#0| state) #b0100) #b11111111) #b00001000) ; $auto$proc_rom.cc:155:do_switch$11[4]
  (= (bvand (select (|moore#0#0| state) #b0101) #b11111111) #b00010000) ; $auto$proc_rom.cc:155:do_switch$11[5]
  (= (bvand (select (|moore#0#0| state) #b0110) #b11111111) #b00100000) ; $auto$proc_rom.cc:155:do_switch$11[6]
  (= (bvand (select (|moore#0#0| state) #b0111) #b11111111) #b01000000) ; $auto$proc_rom.cc:155:do_switch$11[7]
  (= (bvand (select (|moore#0#0| state) #b1000) #b11111111) #b10000000) ; $auto$proc_rom.cc:155:do_switch$11[8]
  (= (bvand (select (|moore#0#0| state) #b1001) #b11111111) #b01000000) ; $auto$proc_rom.cc:155:do_switch$11[9]
  (= (bvand (select (|moore#0#0| state) #b1010) #b11111111) #b00100000) ; $auto$proc_rom.cc:155:do_switch$11[10]
  (= (bvand (select (|moore#0#0| state) #b1011) #b11111111) #b00010000) ; $auto$proc_rom.cc:155:do_switch$11[11]
  (= (bvand (select (|moore#0#0| state) #b1100) #b11111111) #b00001000) ; $auto$proc_rom.cc:155:do_switch$11[12]
  (= (bvand (select (|moore#0#0| state) #b1101) #b11111111) #b00000100) ; $auto$proc_rom.cc:155:do_switch$11[13]
  (= (bvand (select (|moore#0#0| state) #b1110) #b11111111) #b00000010) ; $auto$proc_rom.cc:155:do_switch$11[14]
  (= (bvand (select (|moore#0#0| state) #b1111) #b11111111) #b00000000) ; $auto$proc_rom.cc:155:do_switch$11[15]
))
(define-fun |moore_h| ((state |moore_s|)) Bool true)
(define-fun |moore_t| ((state |moore_s|) (next_state |moore_s|)) Bool (and
  (= #b1 (|moore#5| next_state)) ; $auto$async2sync.cc:104:execute$21 $auto$async2sync.cc:101:execute$19
  (= (ite (|moore#7| state) #b1 #b0) (|moore#4| next_state)) ; $auto$async2sync.cc:112:execute$24 $auto$async2sync.cc:110:execute$23
  (= (|moore#10| state) (|moore#1| next_state)) ; $procdff$18 \led_index
  (= (|moore#0#0| state) (|moore#0#0| next_state)) ; $auto$proc_rom.cc:155:do_switch$11
)) ; end of module moore
; yosys-smt2-topmod moore
; end of yosys output
